(set-logic ALL)
(declare-fun seed0_T_1 () Bool)
(declare-fun seed0_T_2 () Bool)
(declare-fun seed0_T_3 () Bool)
(declare-fun seed0_T_4 () Bool)
(declare-fun seed0_T_5 () Bool)
(declare-fun seed0_T_6 () Bool)
(declare-fun seed0_T_7 () Bool)
(declare-fun seed0_T_8 () Bool)
(declare-fun seed0_T_9 () Bool)
(declare-fun seed0_var_0xINPUT_171995 () String)
(assert (and (or (= seed0_T_1 (not (= "" seed0_var_0xINPUT_171995))) (not (str.<= (str.++ seed0_var_0xINPUT_171995 "BsROKE35GDuW") (str.++ seed0_var_0xINPUT_171995 "s9UozCe")))) (or seed0_T_1 (xor (str.prefixof (str.++ seed0_var_0xINPUT_171995 "ZytjP1VzOTDHo3Lnm2qC") (str.++ seed0_var_0xINPUT_171995 "4uVnLNljpM")) (str.<= (str.++ seed0_var_0xINPUT_171995 "HrX5fYJoFTntiE7e") (str.++ seed0_var_0xINPUT_171995 "VzUHRlBaGg25")))) (or (= seed0_T_2 (not (= "" seed0_var_0xINPUT_171995))) (str.<= (str.++ seed0_var_0xINPUT_171995 "nyZ0c3Ov9BHMJ8Lp") (str.++ seed0_var_0xINPUT_171995 "AL6d2jfX3SF"))) (or seed0_T_2 (xor (str.<= (str.++ seed0_var_0xINPUT_171995 "JKTi") (str.++ seed0_var_0xINPUT_171995 "IgaRpAivNk4x3Ue")) (str.< (str.++ seed0_var_0xINPUT_171995 "MvYeaxunFK6cB") (str.++ seed0_var_0xINPUT_171995 "qiuoU6JPO")))) (or (= seed0_T_3 (not (= "3s71lxYG6e" seed0_var_0xINPUT_171995))) (or (str.< (str.++ seed0_var_0xINPUT_171995 "JLHh79FdP8DpfR") (str.++ seed0_var_0xINPUT_171995 "1gsrdh9DZ")) (str.<= (str.++ seed0_var_0xINPUT_171995 "") (str.++ seed0_var_0xINPUT_171995 "ERwy2Zhzk5GfOl7B9UCq")))) (or seed0_T_3 (xor (str.suffixof (str.++ seed0_var_0xINPUT_171995 "su7") (str.++ seed0_var_0xINPUT_171995 "w5ibq9ZLzPHWDpsCl")) (str.suffixof (str.++ seed0_var_0xINPUT_171995 "kJcNKpdTy") (str.++ seed0_var_0xINPUT_171995 "h7e1ClpVfJxDkMXA")))) (or (= seed0_T_4 (not (= seed0_var_0xINPUT_171995 "3s71lxYG6e"))) (or (str.suffixof (str.++ seed0_var_0xINPUT_171995 "cF") (str.++ seed0_var_0xINPUT_171995 "JA9lsYRHnCLDj1th")) (str.<= (str.++ seed0_var_0xINPUT_171995 "UcemG") (str.++ seed0_var_0xINPUT_171995 "bZ5A6a8MQ")))) (or seed0_T_4 (or (str.<= (str.++ seed0_var_0xINPUT_171995 "xf3y8JNsOgt") (str.++ seed0_var_0xINPUT_171995 "eYESy25OXG9HAo6")) (str.contains (str.++ seed0_var_0xINPUT_171995 "w9P8y5MBmA") (str.++ seed0_var_0xINPUT_171995 "")))) (or (= seed0_T_5 (= seed0_var_0xINPUT_171995 "")) (not (str.suffixof (str.++ seed0_var_0xINPUT_171995 "7SnEhTr") (str.++ seed0_var_0xINPUT_171995 "")))) (or (= seed0_T_6 (not seed0_T_5)) (xor (str.< (str.++ seed0_var_0xINPUT_171995 "ueliYfpQAgx9BvSO") (str.++ seed0_var_0xINPUT_171995 "xMpdnfZm4g")) (str.contains (str.++ seed0_var_0xINPUT_171995 "mlOaoHNKj61irYvkXR") (str.++ seed0_var_0xINPUT_171995 "lz")))) (or seed0_T_6 (str.<= (str.++ seed0_var_0xINPUT_171995 "7jmUbltF") (str.++ seed0_var_0xINPUT_171995 "PiXZN"))) (or (= seed0_T_7 (not (= "" seed0_var_0xINPUT_171995))) (=> (str.contains (str.++ seed0_var_0xINPUT_171995 "YZ27AIldt") (str.++ seed0_var_0xINPUT_171995 "MoQmVIUjSw9TtZHAefCh")) (str.<= (str.++ seed0_var_0xINPUT_171995 "QzS59KuxjPrV6ADkTRMe") (str.++ seed0_var_0xINPUT_171995 "jJNlnTasYSMoF3A6f")))) (or seed0_T_7 (or (str.< (str.++ seed0_var_0xINPUT_171995 "vJ9") (str.++ seed0_var_0xINPUT_171995 "TnZxXmVwLMSyq")) (str.<= (str.++ seed0_var_0xINPUT_171995 "SMyN9bWYeCjpxV4AR") (str.++ seed0_var_0xINPUT_171995 "92lMwDC")))) (or (= seed0_T_8 (not (= seed0_var_0xINPUT_171995 "EMy6QEb2YT"))) (not (str.<= (str.++ seed0_var_0xINPUT_171995 "guV0lT") (str.++ seed0_var_0xINPUT_171995 "2JIGdPVaQi0")))) (or (= seed0_T_9 (not seed0_T_8)) (str.< (str.++ seed0_var_0xINPUT_171995 "sU7HA") (str.++ seed0_var_0xINPUT_171995 "vprcKAI"))) (or seed0_T_9 (or (str.prefixof (str.++ seed0_var_0xINPUT_171995 "QuyPc1gnRe") (str.++ seed0_var_0xINPUT_171995 "5CJt9TNmb")) (str.< (str.++ seed0_var_0xINPUT_171995 "xr6EUvJuP29c") (str.++ seed0_var_0xINPUT_171995 "4WuwPNYktOTiE7L5dh"))))))
(check-sat)
(exit)